rcpsp/heur_output_log_0/heurj120.txt
encoding rcpsp/j120.sm/j12017_3.sm nv: 6670350 nc: 13440714 enctime: 99.85
encoding rcpsp/j120.sm/j12017_3.sm nv: 1323135 nc: 2662665 enctime: 19.17
c File: j12017_3.smnaiveor1000.wcnf
c timeout
c final solution cost: 216
c CPU time: 71.975633
s UNKNOWN

c File: j12017_3.smor1000.wcnf
c timeout
c CPU time: 61.695425
s UNKNOWN


rcpsp/heur_output_log_0/heurj120.txt
encoding rcpsp/j120.sm/j12017_4.sm nv: 7375148 nc: 14910942 enctime: 115.72
encoding rcpsp/j120.sm/j12017_4.sm nv: 1395006 nc: 2816279 enctime: 18.09
c File: j12017_4.smnaiveor1000.wcnf
c timeout
c final solution cost: 151
c CPU time: 73.369671
s UNKNOWN

c File: j12017_4.smor1000.wcnf
c timeout
c CPU time: 61.783581
s UNKNOWN


rcpsp/heur_output_log_0/heurj120.txt
encoding rcpsp/j120.sm/j12017_5.sm nv: 6133560 nc: 12409414 enctime: 97.43
encoding rcpsp/j120.sm/j12017_5.sm nv: 1355640 nc: 2739166 enctime: 16.65
c File: j12017_5.smnaiveor1000.wcnf
c timeout
c final solution cost: 149
c CPU time: 71.524387
s UNKNOWN

c File: j12017_5.smor1000.wcnf
c timeout
c CPU time: 61.773884
s UNKNOWN


rcpsp/heur_output_log_0/heurj120.txt
encoding rcpsp/j120.sm/j12017_6.sm nv: 5769162 nc: 11669791 enctime: 89.32
encoding rcpsp/j120.sm/j12017_6.sm nv: 1367100 nc: 2761822 enctime: 19.31
c File: j12017_6.smnaiveor1000.wcnf
c timeout
c final solution cost: 188
c CPU time: 71.378418
s UNKNOWN

c File: j12017_6.smor1000.wcnf
c timeout
c CPU time: 61.794847
s UNKNOWN


rcpsp/heur_output_log_0/heurj120.txt
encoding rcpsp/j120.sm/j12017_7.sm nv: 6116320 nc: 12412540 enctime: 97.14
encoding rcpsp/j120.sm/j12017_7.sm nv: 1413510 nc: 2864619 enctime: 19.70
c File: j12017_7.smnaiveor1000.wcnf
c timeout
c final solution cost: 187
c CPU time: 72.028600
s UNKNOWN

c File: j12017_7.smor1000.wcnf
c timeout
c CPU time: 61.874047
s UNKNOWN


rcpsp/heur_output_log_0/heurj120.txt
encoding rcpsp/j120.sm/j12017_8.sm nv: 6054645 nc: 12237707 enctime: 95.37
encoding rcpsp/j120.sm/j12017_8.sm nv: 1339100 nc: 2703087 enctime: 16.53
c File: j12017_8.smnaiveor1000.wcnf
c timeout
c final solution cost: 143
c CPU time: 71.668594
s UNKNOWN

c File: j12017_8.smor1000.wcnf
c timeout
c CPU time: 61.738142
s UNKNOWN


rcpsp/heur_output_log_0/heurj120.txt
encoding rcpsp/j120.sm/j12017_9.sm nv: 5677470 nc: 11490526 enctime: 88.96
encoding rcpsp/j120.sm/j12017_9.sm nv: 1370115 nc: 2769515 enctime: 19.14
c File: j12017_9.smnaiveor1000.wcnf
c timeout
c final solution cost: 190
c CPU time: 70.767749
s UNKNOWN

c File: j12017_9.smor1000.wcnf
c timeout
c CPU time: 61.796786
s UNKNOWN


rcpsp/heur_output_log_0/heurj120.txt
encoding rcpsp/j120.sm/j1201_7.sm nv: 638608 nc: 1491876 enctime: 21.61
encoding rcpsp/j120.sm/j1201_7.sm nv: 128104 nc: 295182 enctime: 2.16
c File: j1201_7.smnaiveor1000.wcnf
c timeout
c final solution cost: 163
c CPU time: 64.017771
s UNKNOWN

c File: j1201_7.smor1000.wcnf
c optimal
c final solution cost: 117
c CPU time: 3.327719
s OPTIMUM FOUND


rcpsp/heur_output_log_0/heurj120.txt
encoding rcpsp/j120.sm/j12018_10.sm nv: 9594120 nc: 19314505 enctime: 143.21
encoding rcpsp/j120.sm/j12018_10.sm nv: 1467336 nc: 2949769 enctime: 19.25
c File: j12018_10.smnaiveor1000.wcnf
c timeout
c final solution cost: 122
c CPU time: 77.029355
s UNKNOWN

c File: j12018_10.smor1000.wcnf
c timeout
c CPU time: 61.816818
s UNKNOWN


rcpsp/heur_output_log_0/heurj120.txt
encoding rcpsp/j120.sm/j12018_1.sm nv: 7694844 nc: 15581348 enctime: 123.16
encoding rcpsp/j120.sm/j12018_1.sm nv: 1588336 nc: 3211857 enctime: 19.70
c File: j12018_1.smnaiveor1000.wcnf
c timeout
c final solution cost: 161
c CPU time: 74.319177
s UNKNOWN

c File: j12018_1.smor1000.wcnf
c timeout
c CPU time: 62.045729
s UNKNOWN


rcpsp/heur_output_log_0/heurj120.txt
encoding rcpsp/j120.sm/j12018_2.sm nv: 7958639 nc: 16078209 enctime: 124.84
encoding rcpsp/j120.sm/j12018_2.sm nv: 1432324 nc: 2889414 enctime: 17.99
c File: j12018_2.smnaiveor1000.wcnf
c timeout
c final solution cost: 130
c CPU time: 74.450271
s UNKNOWN

c File: j12018_2.smor1000.wcnf
c timeout
c CPU time: 61.892545
s UNKNOWN


rcpsp/heur_output_log_0/heurj120.txt
encoding rcpsp/j120.sm/j12018_3.sm nv: 8932440 nc: 17984224 enctime: 140.96
encoding rcpsp/j120.sm/j12018_3.sm nv: 1461672 nc: 2938912 enctime: 20.60
c File: j12018_3.smnaiveor1000.wcnf
c timeout
c final solution cost: 127
c CPU time: 76.550455
s UNKNOWN

c File: j12018_3.smor1000.wcnf
c timeout
c CPU time: 61.883988
s UNKNOWN


rcpsp/heur_output_log_0/heurj120.txt
encoding rcpsp/j120.sm/j12018_4.sm nv: 8444052 nc: 17007958 enctime: 133.13
encoding rcpsp/j120.sm/j12018_4.sm nv: 1411659 nc: 2839459 enctime: 18.88
c File: j12018_4.smnaiveor1000.wcnf
c timeout
c final solution cost: 121
c CPU time: 75.807214
s UNKNOWN

c File: j12018_4.smor1000.wcnf
c timeout
c CPU time: 61.829435
s UNKNOWN


rcpsp/heur_output_log_0/heurj120.txt
encoding rcpsp/j120.sm/j12018_5.sm nv: 8293802 nc: 16735325 enctime: 131.26
encoding rcpsp/j120.sm/j12018_5.sm nv: 1556608 nc: 3136841 enctime: 23.44
c File: j12018_5.smnaiveor1000.wcnf
c timeout
c final solution cost: 133
c CPU time: 75.107821
s UNKNOWN

c File: j12018_5.smor1000.wcnf
c timeout
c CPU time: 62.041722
s UNKNOWN


rcpsp/heur_output_log_0/heurj120.txt
encoding rcpsp/j120.sm/j12018_6.sm nv: 6200385 nc: 12539981 enctime: 102.03
encoding rcpsp/j120.sm/j12018_6.sm nv: 1451563 nc: 2932175 enctime: 18.51
c File: j12018_6.smnaiveor1000.wcnf
c timeout
c final solution cost: 150
c CPU time: 71.778088
s UNKNOWN

c File: j12018_6.smor1000.wcnf
c timeout
c CPU time: 61.938203
s UNKNOWN


rcpsp/heur_output_log_0/heurj120.txt
encoding rcpsp/j120.sm/j12018_7.sm nv: 6881838 nc: 13893366 enctime: 109.23
encoding rcpsp/j120.sm/j12018_7.sm nv: 1374237 nc: 2770628 enctime: 20.98
c File: j12018_7.smnaiveor1000.wcnf
c timeout
c final solution cost: 132
c CPU time: 72.665704
s UNKNOWN

c File: j12018_7.smor1000.wcnf
c timeout
c CPU time: 61.806825
s UNKNOWN


rcpsp/heur_output_log_0/heurj120.txt
encoding rcpsp/j120.sm/j12018_8.sm nv: 7588440 nc: 15293540 enctime: 121.17
encoding rcpsp/j120.sm/j12018_8.sm nv: 1359300 nc: 2735657 enctime: 18.03
c File: j12018_8.smnaiveor1000.wcnf
c timeout
c final solution cost: 141
c CPU time: 73.717624
s UNKNOWN

c File: j12018_8.smor1000.wcnf
c timeout
c CPU time: 61.759535
s UNKNOWN


rcpsp/heur_output_log_0/heurj120.txt
encoding rcpsp/j120.sm/j12018_9.sm nv: 9752106 nc: 19626648 enctime: 155.16
encoding rcpsp/j120.sm/j12018_9.sm nv: 1432431 nc: 2878623 enctime: 15.66
c File: j12018_9.smnaiveor1000.wcnf
c timeout
c final solution cost: 151
c CPU time: 77.702773
s UNKNOWN

c File: j12018_9.smor1000.wcnf
c timeout
c CPU time: 61.875057
s UNKNOWN


rcpsp/heur_output_log_0/heurj120.txt
encoding rcpsp/j120.sm/j1201_8.sm nv: 578124 nc: 1336866 enctime: 19.70
encoding rcpsp/j120.sm/j1201_8.sm nv: 109989 nc: 250731 enctime: 1.88
c File: j1201_8.smnaiveor1000.wcnf
c timeout
c final solution cost: 110
c CPU time: 63.742892
s UNKNOWN

c File: j1201_8.smor1000.wcnf
c timeout
c final solution cost: 110
c CPU time: 60.254155
s UNKNOWN


rcpsp/heur_output_log_0/heurj120.txt
encoding rcpsp/j120.sm/j12019_10.sm nv: 11872368 nc: 23863350 enctime: 190.92
encoding rcpsp/j120.sm/j12019_10.sm nv: 1518162 nc: 3046892 enctime: 22.16
c File: j12019_10.smnaiveor1000.wcnf
c timeout
c final solution cost: 109
c CPU time: 80.684853
s UNKNOWN

c File: j12019_10.smor1000.wcnf
c optimal
c final solution cost: 88
c CPU time: 5.582559
s OPTIMUM FOUND


rcpsp/heur_output_log_0/heurj120.txt
encoding rcpsp/j120.sm/j12019_1.sm nv: 10965642 nc: 21990675 enctime: 170.45
encoding rcpsp/j120.sm/j12019_1.sm nv: 1611564 nc: 3228051 enctime: 17.84
c File: j12019_1.smnaiveor1000.wcnf
c timeout
c final solution cost: 103
c CPU time: 78.691295
s UNKNOWN

c File: j12019_1.smor1000.wcnf
c optimal
c final solution cost: 88
c CPU time: 42.255857
s OPTIMUM FOUND


rcpsp/heur_output_log_0/heurj120.txt
encoding rcpsp/j120.sm/j12019_2.sm nv: 11988750 nc: 24088993 enctime: 185.53
encoding rcpsp/j120.sm/j12019_2.sm nv: 1529000 nc: 3067755 enctime: 22.09
c File: j12019_2.smnaiveor1000.wcnf
c timeout
c final solution cost: 101
c CPU time: 80.841109
s UNKNOWN

c File: j12019_2.smor1000.wcnf
c timeout
c CPU time: 61.912393
s UNKNOWN


rcpsp/heur_output_log_0/heurj120.txt
encoding rcpsp/j120.sm/j12019_3.sm nv: 9590001 nc: 19266384 enctime: 149.29
encoding rcpsp/j120.sm/j12019_3.sm nv: 1376412 nc: 2761248 enctime: 14.82
c File: j12019_3.smnaiveor1000.wcnf
c timeout
c final solution cost: 91
c CPU time: 76.857340
s UNKNOWN

c File: j12019_3.smor1000.wcnf
c timeout
c CPU time: 61.764715
s UNKNOWN


rcpsp/heur_output_log_0/heurj120.txt
encoding rcpsp/j120.sm/j12019_4.sm nv: 8154685 nc: 16429340 enctime: 129.24
encoding rcpsp/j120.sm/j12019_4.sm nv: 1470105 nc: 2958036 enctime: 19.58
c File: j12019_4.smnaiveor1000.wcnf
c timeout
c final solution cost: 120
c CPU time: 74.534324
s UNKNOWN

c File: j12019_4.smor1000.wcnf
c timeout
c CPU time: 61.908654
s UNKNOWN


rcpsp/heur_output_log_0/heurj120.txt
encoding rcpsp/j120.sm/j12019_5.sm nv: 8433762 nc: 17004881 enctime: 135.69
encoding rcpsp/j120.sm/j12019_5.sm nv: 1413969 nc: 2846924 enctime: 20.00
c File: j12019_5.smnaiveor1000.wcnf
c timeout
c final solution cost: 136
c CPU time: 75.953376
s UNKNOWN

c File: j12019_5.smor1000.wcnf
c timeout
c CPU time: 61.850782
s UNKNOWN


rcpsp/heur_output_log_0/heurj120.txt
encoding rcpsp/j120.sm/j12019_6.sm nv: 10591038 nc: 21298436 enctime: 164.78
encoding rcpsp/j120.sm/j12019_6.sm nv: 1483995 nc: 2979993 enctime: 21.13
c File: j12019_6.smnaiveor1000.wcnf
c timeout
c final solution cost: 129
c CPU time: 78.773610
s UNKNOWN

c File: j12019_6.smor1000.wcnf
c timeout
c CPU time: 61.874155
s UNKNOWN


rcpsp/heur_output_log_0/heurj120.txt
encoding rcpsp/j120.sm/j12019_7.sm nv: 10658250 nc: 21427020 enctime: 164.74
encoding rcpsp/j120.sm/j12019_7.sm nv: 1531630 nc: 3074942 enctime: 21.06
c File: j12019_7.smnaiveor1000.wcnf
c timeout
c final solution cost: 98
c CPU time: 79.092656
s UNKNOWN

c File: j12019_7.smor1000.wcnf
c optimal
c final solution cost: 93
c CPU time: 16.494514
s OPTIMUM FOUND


rcpsp/heur_output_log_0/heurj120.txt
encoding rcpsp/j120.sm/j12019_8.sm nv: 10305400 nc: 20735625 enctime: 160.57
encoding rcpsp/j120.sm/j12019_8.sm nv: 1500345 nc: 3014544 enctime: 20.70
c File: j12019_8.smnaiveor1000.wcnf
c timeout
c final solution cost: 121
c CPU time: 78.293414
s UNKNOWN

c File: j12019_8.smor1000.wcnf
c timeout
c CPU time: 61.942998
s UNKNOWN


rcpsp/heur_output_log_0/heurj120.txt
encoding rcpsp/j120.sm/j12019_9.sm nv: 9436025 nc: 18963195 enctime: 141.72
encoding rcpsp/j120.sm/j12019_9.sm nv: 1364775 nc: 2738745 enctime: 18.24
c File: j12019_9.smnaiveor1000.wcnf
c timeout
c final solution cost: 94
c CPU time: 76.537274
s UNKNOWN

c File: j12019_9.smor1000.wcnf
c timeout
c CPU time: 61.696892
s UNKNOWN


rcpsp/heur_output_log_0/heurj120.txt
encoding rcpsp/j120.sm/j1201_9.sm nv: 629726 nc: 1486599 enctime: 22.03
encoding rcpsp/j120.sm/j1201_9.sm nv: 125392 nc: 291951 enctime: 2.12
c File: j1201_9.smnaiveor1000.wcnf
c optimal
c final solution cost: 112
c CPU time: 18.237358
s OPTIMUM FOUND

c File: j1201_9.smor1000.wcnf
c optimal
c final solution cost: 112
c CPU time: 3.358793
s OPTIMUM FOUND


rcpsp/heur_output_log_0/heurj120.txt
encoding rcpsp/j120.sm/j12020_10.sm nv: 13285166 nc: 26661241 enctime: 196.00
encoding rcpsp/j120.sm/j12020_10.sm nv: 1672662 nc: 3352277 enctime: 23.06
c File: j12020_10.smnaiveor1000.wcnf
c timeout
c final solution cost: 87
c CPU time: 82.138653
s UNKNOWN

c File: j12020_10.smor1000.wcnf
c optimal
c final solution cost: 81
c CPU time: 16.513333
s OPTIMUM FOUND


rcpsp/heur_output_log_0/heurj120.txt
encoding rcpsp/j120.sm/j12020_1.sm nv: 10756326 nc: 21605285 enctime: 159.57
encoding rcpsp/j120.sm/j12020_1.sm nv: 1536618 nc: 3082397 enctime: 20.82
c File: j12020_1.smnaiveor1000.wcnf
c timeout
c final solution cost: 93
c CPU time: 78.359433
s UNKNOWN

c File: j12020_1.smor1000.wcnf
c timeout
c final solution cost: 91
c CPU time: 62.349884
s UNKNOWN


rcpsp/heur_output_log_0/heurj120.txt
encoding rcpsp/j120.sm/j12020_2.sm nv: 10539540 nc: 21175162 enctime: 159.20
encoding rcpsp/j120.sm/j12020_2.sm nv: 1596900 nc: 3204202 enctime: 21.28
c File: j12020_2.smnaiveor1000.wcnf
c optimal
c final solution cost: 99
c CPU time: 32.120311
s OPTIMUM FOUND

c File: j12020_2.smor1000.wcnf
c optimal
c final solution cost: 99
c CPU time: 3.764474
s OPTIMUM FOUND


rcpsp/heur_output_log_0/heurj120.txt
encoding rcpsp/j120.sm/j12020_3.sm nv: 13290312 nc: 26703527 enctime: 196.73
encoding rcpsp/j120.sm/j12020_3.sm nv: 1501416 nc: 3011891 enctime: 20.95
c File: j12020_3.smnaiveor1000.wcnf
c timeout
c final solution cost: 90
c CPU time: 82.387058
s UNKNOWN

c File: j12020_3.smor1000.wcnf
c timeout
c CPU time: 61.851252
s UNKNOWN


rcpsp/heur_output_log_0/heurj120.txt
encoding rcpsp/j120.sm/j12020_4.sm nv: 11445696 nc: 22954700 enctime: 168.58
encoding rcpsp/j120.sm/j12020_4.sm nv: 1607040 nc: 3218982 enctime: 21.31
c File: j12020_4.smnaiveor1000.wcnf
c optimal
c final solution cost: 89
c CPU time: 30.436355
s OPTIMUM FOUND

c File: j12020_4.smor1000.wcnf
c optimal
c final solution cost: 89
c CPU time: 3.402972
s OPTIMUM FOUND


rcpsp/heur_output_log_0/heurj120.txt
encoding rcpsp/j120.sm/j12020_5.sm nv: 12602646 nc: 25231768 enctime: 175.51
encoding rcpsp/j120.sm/j12020_5.sm nv: 1469274 nc: 2938124 enctime: 20.11
c File: j12020_5.smnaiveor1000.wcnf
c timeout
c final solution cost: 71
c CPU time: 80.131310
s UNKNOWN

c File: j12020_5.smor1000.wcnf
c optimal
c final solution cost: 69
c CPU time: 9.183285
s OPTIMUM FOUND


rcpsp/heur_output_log_0/heurj120.txt
encoding rcpsp/j120.sm/j12020_6.sm nv: 11676126 nc: 23372047 enctime: 162.44
encoding rcpsp/j120.sm/j12020_6.sm nv: 1642872 nc: 3285019 enctime: 21.30
c File: j12020_6.smnaiveor1000.wcnf
c optimal
c final solution cost: 80
c CPU time: 31.311259
s OPTIMUM FOUND

c File: j12020_6.smor1000.wcnf
c optimal
c final solution cost: 80
c CPU time: 4.089125
s OPTIMUM FOUND


rcpsp/heur_output_log_0/heurj120.txt
encoding rcpsp/j120.sm/j12020_7.sm nv: 11280967 nc: 22596102 enctime: 157.36
encoding rcpsp/j120.sm/j12020_7.sm nv: 1544306 nc: 3089692 enctime: 19.77
c File: j12020_7.smnaiveor1000.wcnf
c optimal
c final solution cost: 81
c CPU time: 31.929433
s OPTIMUM FOUND

c File: j12020_7.smor1000.wcnf
c optimal
c final solution cost: 81
c CPU time: 2.918781
s OPTIMUM FOUND


rcpsp/heur_output_log_0/heurj120.txt
encoding rcpsp/j120.sm/j12020_8.sm nv: 9535078 nc: 19196526 enctime: 136.00
encoding rcpsp/j120.sm/j12020_8.sm nv: 1570317 nc: 3157219 enctime: 19.06
c File: j12020_8.smnaiveor1000.wcnf
c timeout
c final solution cost: 109
c CPU time: 76.524758
s UNKNOWN

c File: j12020_8.smor1000.wcnf
c timeout
c final solution cost: 110
c CPU time: 62.374403
s UNKNOWN


rcpsp/heur_output_log_0/heurj120.txt
encoding rcpsp/j120.sm/j12020_9.sm nv: 17914050 nc: 35896706 enctime: 256.58
encoding rcpsp/j120.sm/j12020_9.sm nv: 1998675 nc: 4000166 enctime: 27.95
c File: j12020_9.smnaiveor1000.wcnf
c optimal
c final solution cost: 80
c CPU time: 47.153538
s OPTIMUM FOUND

c File: j12020_9.smor1000.wcnf
c optimal
c final solution cost: 80
c CPU time: 4.081664
s OPTIMUM FOUND


